100 4950
1 2 3
1 3 2
1 4 3
1 5 3
1 6 5
1 7 3
1 8 4
1 9 1
1 10 3
1 11 1
1 12 1
1 13 1
1 14 3
1 15 5
1 16 3
1 17 3
1 18 1
1 19 2
1 20 2
1 21 1
1 22 1
1 23 4
1 24 5
1 25 3
1 26 3
1 27 5
1 28 2
1 29 1
1 30 1
1 31 1
1 32 1
1 33 4
1 34 4
1 35 5
1 36 3
1 37 1
1 38 4
1 39 3
1 40 4
1 41 4
1 42 2
1 43 5
1 44 5
1 45 5
1 46 1
1 47 3
1 48 5
1 49 4
1 50 5
1 51 3
1 52 3
1 53 3
1 54 1
1 55 1
1 56 1
1 57 2
1 58 2
1 59 3
1 60 1
1 61 3
1 62 5
1 63 4
1 64 3
1 65 2
1 66 1
1 67 3
1 68 5
1 69 2
1 70 3
1 71 3
1 72 3
1 73 3
1 74 1
1 75 5
1 76 5
1 77 4
1 78 3
1 79 2
1 80 1
1 81 1
1 82 5
1 83 4
1 84 3
1 85 3
1 86 5
1 87 5
1 88 4
1 89 2
1 90 3
1 91 2
1 92 2
1 93 5
1 94 4
1 95 2
1 96 1
1 97 3
1 98 1
1 99 2
1 100 1
2 3 1
2 4 5
2 5 5
2 6 1
2 7 5
2 8 5
2 9 1
2 10 5
2 11 1
2 12 3
2 13 5
2 14 5
2 15 3
2 16 1
2 17 5
2 18 3
2 19 4
2 20 2
2 21 2
2 22 5
2 23 3
2 24 3
2 25 2
2 26 4
2 27 1
2 28 1
2 29 3
2 30 2
2 31 4
2 32 1
2 33 5
2 34 2
2 35 5
2 36 5
2 37 2
2 38 5
2 39 2
2 40 5
2 41 2
2 42 4
2 43 5
2 44 5
2 45 1
2 46 5
2 47 4
2 48 2
2 49 5
2 50 1
2 51 5
2 52 4
2 53 1
2 54 5
2 55 2
2 56 4
2 57 3
2 58 3
2 59 2
2 60 2
2 61 4
2 62 4
2 63 5
2 64 4
2 65 5
2 66 3
2 67 3
2 68 5
2 69 1
2 70 1
2 71 1
2 72 3
2 73 2
2 74 4
2 75 5
2 76 4
2 77 2
2 78 3
2 79 4
2 80 4
2 81 3
2 82 1
2 83 1
2 84 2
2 85 3
2 86 3
2 87 2
2 88 3
2 89 3
2 90 4
2 91 4
2 92 2
2 93 2
2 94 1
2 95 2
2 96 4
2 97 4
2 98 4
2 99 5
2 100 1
3 4 1
3 5 2
3 6 3
3 7 5
3 8 5
3 9 3
3 10 2
3 11 4
3 12 5
3 13 1
3 14 2
3 15 1
3 16 5
3 17 5
3 18 5
3 19 3
3 20 3
3 21 1
3 22 4
3 23 3
3 24 5
3 25 4
3 26 4
3 27 4
3 28 2
3 29 3
3 30 1
3 31 2
3 32 3
3 33 1
3 34 1
3 35 4
3 36 1
3 37 1
3 38 5
3 39 1
3 40 5
3 41 4
3 42 4
3 43 1
3 44 2
3 45 4
3 46 3
3 47 5
3 48 2
3 49 2
3 50 5
3 51 1
3 52 3
3 53 2
3 54 4
3 55 2
3 56 5
3 57 2
3 58 3
3 59 2
3 60 1
3 61 5
3 62 2
3 63 2
3 64 2
3 65 2
3 66 2
3 67 4
3 68 1
3 69 1
3 70 1
3 71 5
3 72 3
3 73 4
3 74 5
3 75 5
3 76 2
3 77 4
3 78 5
3 79 3
3 80 2
3 81 1
3 82 5
3 83 1
3 84 4
3 85 5
3 86 1
3 87 5
3 88 2
3 89 2
3 90 5
3 91 3
3 92 4
3 93 3
3 94 5
3 95 3
3 96 4
3 97 4
3 98 5
3 99 1
3 100 4
4 5 1
4 6 5
4 7 3
4 8 2
4 9 3
4 10 5
4 11 1
4 12 3
4 13 5
4 14 1
4 15 3
4 16 5
4 17 1
4 18 5
4 19 1
4 20 4
4 21 4
4 22 3
4 23 3
4 24 3
4 25 4
4 26 4
4 27 4
4 28 3
4 29 2
4 30 1
4 31 1
4 32 2
4 33 5
4 34 4
4 35 3
4 36 2
4 37 5
4 38 2
4 39 4
4 40 3
4 41 1
4 42 4
4 43 4
4 44 5
4 45 2
4 46 5
4 47 3
4 48 4
4 49 2
4 50 3
4 51 3
4 52 1
4 53 3
4 54 3
4 55 3
4 56 4
4 57 4
4 58 5
4 59 2
4 60 4
4 61 4
4 62 2
4 63 2
4 64 4
4 65 5
4 66 1
4 67 1
4 68 2
4 69 1
4 70 4
4 71 1
4 72 4
4 73 1
4 74 3
4 75 2
4 76 4
4 77 2
4 78 2
4 79 2
4 80 2
4 81 4
4 82 3
4 83 2
4 84 2
4 85 5
4 86 1
4 87 5
4 88 2
4 89 3
4 90 2
4 91 4
4 92 4
4 93 4
4 94 5
4 95 1
4 96 2
4 97 4
4 98 3
4 99 1
4 100 3
5 6 1
5 7 1
5 8 5
5 9 4
5 10 4
5 11 5
5 12 2
5 13 1
5 14 5
5 15 3
5 16 4
5 17 3
5 18 5
5 19 4
5 20 3
5 21 2
5 22 5
5 23 1
5 24 2
5 25 5
5 26 2
5 27 1
5 28 3
5 29 2
5 30 4
5 31 2
5 32 5
5 33 1
5 34 4
5 35 3
5 36 5
5 37 4
5 38 2
5 39 3
5 40 5
5 41 1
5 42 2
5 43 2
5 44 5
5 45 2
5 46 2
5 47 4
5 48 3
5 49 5
5 50 5
5 51 5
5 52 4
5 53 2
5 54 5
5 55 3
5 56 2
5 57 4
5 58 2
5 59 3
5 60 2
5 61 2
5 62 4
5 63 5
5 64 3
5 65 5
5 66 1
5 67 3
5 68 4
5 69 4
5 70 1
5 71 1
5 72 4
5 73 2
5 74 5
5 75 1
5 76 1
5 77 3
5 78 2
5 79 3
5 80 5
5 81 3
5 82 3
5 83 2
5 84 3
5 85 5
5 86 2
5 87 5
5 88 2
5 89 1
5 90 2
5 91 4
5 92 1
5 93 3
5 94 4
5 95 2
5 96 5
5 97 1
5 98 4
5 99 1
5 100 4
6 7 1
6 8 4
6 9 1
6 10 1
6 11 4
6 12 2
6 13 3
6 14 5
6 15 2
6 16 2
6 17 5
6 18 4
6 19 5
6 20 4
6 21 2
6 22 2
6 23 5
6 24 2
6 25 1
6 26 2
6 27 1
6 28 1
6 29 1
6 30 4
6 31 3
6 32 3
6 33 4
6 34 1
6 35 4
6 36 2
6 37 1
6 38 4
6 39 1
6 40 5
6 41 2
6 42 1
6 43 2
6 44 4
6 45 4
6 46 1
6 47 5
6 48 3
6 49 1
6 50 4
6 51 2
6 52 4
6 53 4
6 54 4
6 55 5
6 56 2
6 57 4
6 58 3
6 59 3
6 60 4
6 61 4
6 62 2
6 63 2
6 64 5
6 65 3
6 66 3
6 67 1
6 68 1
6 69 1
6 70 3
6 71 2
6 72 4
6 73 5
6 74 5
6 75 3
6 76 1
6 77 3
6 78 5
6 79 2
6 80 5
6 81 5
6 82 3
6 83 5
6 84 2
6 85 5
6 86 4
6 87 1
6 88 3
6 89 4
6 90 2
6 91 2
6 92 3
6 93 1
6 94 4
6 95 2
6 96 3
6 97 5
6 98 2
6 99 4
6 100 1
7 8 2
7 9 1
7 10 5
7 11 2
7 12 3
7 13 2
7 14 3
7 15 4
7 16 5
7 17 1
7 18 2
7 19 5
7 20 5
7 21 3
7 22 5
7 23 2
7 24 1
7 25 3
7 26 4
7 27 1
7 28 5
7 29 4
7 30 3
7 31 3
7 32 4
7 33 5
7 34 3
7 35 1
7 36 2
7 37 2
7 38 3
7 39 1
7 40 4
7 41 4
7 42 5
7 43 1
7 44 5
7 45 5
7 46 5
7 47 3
7 48 3
7 49 2
7 50 2
7 51 3
7 52 3
7 53 3
7 54 3
7 55 2
7 56 1
7 57 2
7 58 1
7 59 2
7 60 4
7 61 2
7 62 2
7 63 1
7 64 5
7 65 2
7 66 4
7 67 3
7 68 2
7 69 1
7 70 3
7 71 5
7 72 4
7 73 5
7 74 2
7 75 3
7 76 1
7 77 5
7 78 4
7 79 3
7 80 1
7 81 2
7 82 2
7 83 2
7 84 2
7 85 3
7 86 3
7 87 5
7 88 2
7 89 5
7 90 1
7 91 5
7 92 1
7 93 2
7 94 2
7 95 2
7 96 2
7 97 5
7 98 3
7 99 3
7 100 5
8 9 1
8 10 5
8 11 5
8 12 5
8 13 2
8 14 5
8 15 2
8 16 3
8 17 4
8 18 3
8 19 2
8 20 2
8 21 5
8 22 3
8 23 3
8 24 4
8 25 5
8 26 5
8 27 2
8 28 2
8 29 2
8 30 5
8 31 3
8 32 5
8 33 5
8 34 5
8 35 5
8 36 5
8 37 2
8 38 3
8 39 4
8 40 2
8 41 5
8 42 3
8 43 2
8 44 1
8 45 4
8 46 1
8 47 5
8 48 3
8 49 1
8 50 2
8 51 3
8 52 3
8 53 2
8 54 3
8 55 2
8 56 5
8 57 3
8 58 5
8 59 2
8 60 1
8 61 2
8 62 1
8 63 1
8 64 4
8 65 2
8 66 5
8 67 3
8 68 4
8 69 1
8 70 5
8 71 4
8 72 3
8 73 4
8 74 1
8 75 1
8 76 4
8 77 4
8 78 3
8 79 5
8 80 5
8 81 4
8 82 3
8 83 2
8 84 3
8 85 2
8 86 5
8 87 2
8 88 2
8 89 3
8 90 1
8 91 4
8 92 1
8 93 5
8 94 2
8 95 2
8 96 4
8 97 5
8 98 2
8 99 3
8 100 4
9 10 5
9 11 4
9 12 1
9 13 4
9 14 4
9 15 2
9 16 2
9 17 1
9 18 2
9 19 4
9 20 5
9 21 1
9 22 5
9 23 2
9 24 4
9 25 4
9 26 2
9 27 1
9 28 2
9 29 5
9 30 2
9 31 2
9 32 3
9 33 1
9 34 2
9 35 3
9 36 3
9 37 5
9 38 4
9 39 5
9 40 4
9 41 5
9 42 1
9 43 4
9 44 1
9 45 5
9 46 4
9 47 4
9 48 1
9 49 3
9 50 3
9 51 4
9 52 1
9 53 2
9 54 4
9 55 4
9 56 1
9 57 3
9 58 2
9 59 1
9 60 5
9 61 1
9 62 4
9 63 3
9 64 1
9 65 2
9 66 3
9 67 3
9 68 1
9 69 1
9 70 3
9 71 3
9 72 3
9 73 2
9 74 4
9 75 3
9 76 1
9 77 5
9 78 5
9 79 4
9 80 2
9 81 2
9 82 2
9 83 5
9 84 5
9 85 3
9 86 5
9 87 4
9 88 3
9 89 5
9 90 5
9 91 4
9 92 2
9 93 3
9 94 5
9 95 4
9 96 2
9 97 2
9 98 5
9 99 5
9 100 3
10 11 1
10 12 3
10 13 1
10 14 1
10 15 2
10 16 1
10 17 3
10 18 4
10 19 4
10 20 4
10 21 4
10 22 1
10 23 5
10 24 2
10 25 3
10 26 5
10 27 2
10 28 3
10 29 4
10 30 4
10 31 5
10 32 2
10 33 2
10 34 2
10 35 5
10 36 2
10 37 2
10 38 2
10 39 1
10 40 2
10 41 2
10 42 1
10 43 5
10 44 4
10 45 5
10 46 5
10 47 4
10 48 2
10 49 4
10 50 3
10 51 3
10 52 4
10 53 4
10 54 2
10 55 5
10 56 2
10 57 4
10 58 2
10 59 4
10 60 4
10 61 1
10 62 4
10 63 5
10 64 4
10 65 2
10 66 5
10 67 4
10 68 3
10 69 2
10 70 3
10 71 2
10 72 5
10 73 5
10 74 4
10 75 2
10 76 2
10 77 1
10 78 1
10 79 5
10 80 4
10 81 1
10 82 4
10 83 5
10 84 4
10 85 2
10 86 3
10 87 2
10 88 3
10 89 2
10 90 3
10 91 1
10 92 4
10 93 3
10 94 3
10 95 1
10 96 1
10 97 3
10 98 3
10 99 5
10 100 2
11 12 1
11 13 5
11 14 5
11 15 3
11 16 5
11 17 4
11 18 1
11 19 5
11 20 2
11 21 4
11 22 4
11 23 5
11 24 1
11 25 5
11 26 3
11 27 1
11 28 3
11 29 1
11 30 3
11 31 4
11 32 3
11 33 3
11 34 1
11 35 1
11 36 5
11 37 2
11 38 3
11 39 2
11 40 4
11 41 5
11 42 2
11 43 1
11 44 2
11 45 4
11 46 3
11 47 1
11 48 1
11 49 3
11 50 3
11 51 2
11 52 4
11 53 1
11 54 4
11 55 2
11 56 4
11 57 4
11 58 5
11 59 4
11 60 5
11 61 1
11 62 1
11 63 5
11 64 1
11 65 4
11 66 5
11 67 3
11 68 3
11 69 2
11 70 5
11 71 5
11 72 1
11 73 5
11 74 2
11 75 2
11 76 4
11 77 3
11 78 4
11 79 4
11 80 2
11 81 3
11 82 1
11 83 2
11 84 1
11 85 2
11 86 4
11 87 4
11 88 4
11 89 4
11 90 2
11 91 2
11 92 1
11 93 4
11 94 5
11 95 3
11 96 5
11 97 1
11 98 1
11 99 1
11 100 1
12 13 5
12 14 1
12 15 4
12 16 2
12 17 2
12 18 2
12 19 4
12 20 5
12 21 3
12 22 5
12 23 5
12 24 3
12 25 5
12 26 5
12 27 3
12 28 1
12 29 1
12 30 3
12 31 2
12 32 3
12 33 4
12 34 3
12 35 2
12 36 2
12 37 4
12 38 4
12 39 2
12 40 4
12 41 1
12 42 2
12 43 1
12 44 1
12 45 1
12 46 2
12 47 3
12 48 5
12 49 3
12 50 4
12 51 2
12 52 4
12 53 3
12 54 4
12 55 5
12 56 5
12 57 1
12 58 5
12 59 3
12 60 2
12 61 3
12 62 4
12 63 3
12 64 4
12 65 2
12 66 5
12 67 4
12 68 3
12 69 1
12 70 2
12 71 3
12 72 3
12 73 1
12 74 1
12 75 1
12 76 5
12 77 5
12 78 5
12 79 3
12 80 2
12 81 2
12 82 5
12 83 5
12 84 4
12 85 4
12 86 2
12 87 2
12 88 3
12 89 5
12 90 5
12 91 1
12 92 4
12 93 3
12 94 1
12 95 4
12 96 1
12 97 4
12 98 2
12 99 1
12 100 2
13 14 2
13 15 3
13 16 1
13 17 1
13 18 1
13 19 5
13 20 4
13 21 3
13 22 4
13 23 3
13 24 4
13 25 5
13 26 2
13 27 3
13 28 3
13 29 3
13 30 4
13 31 5
13 32 2
13 33 5
13 34 4
13 35 2
13 36 4
13 37 1
13 38 4
13 39 1
13 40 3
13 41 2
13 42 2
13 43 4
13 44 3
13 45 1
13 46 2
13 47 3
13 48 3
13 49 5
13 50 2
13 51 4
13 52 1
13 53 2
13 54 4
13 55 5
13 56 1
13 57 5
13 58 3
13 59 1
13 60 4
13 61 4
13 62 1
13 63 1
13 64 5
13 65 1
13 66 1
13 67 1
13 68 5
13 69 3
13 70 1
13 71 4
13 72 1
13 73 2
13 74 2
13 75 5
13 76 5
13 77 1
13 78 5
13 79 5
13 80 3
13 81 2
13 82 4
13 83 3
13 84 3
13 85 2
13 86 1
13 87 1
13 88 5
13 89 1
13 90 1
13 91 3
13 92 4
13 93 1
13 94 2
13 95 3
13 96 1
13 97 4
13 98 2
13 99 4
13 100 3
14 15 3
14 16 1
14 17 5
14 18 3
14 19 3
14 20 3
14 21 5
14 22 4
14 23 1
14 24 2
14 25 5
14 26 1
14 27 2
14 28 5
14 29 4
14 30 5
14 31 5
14 32 3
14 33 1
14 34 4
14 35 1
14 36 5
14 37 2
14 38 4
14 39 3
14 40 3
14 41 4
14 42 5
14 43 1
14 44 4
14 45 1
14 46 2
14 47 1
14 48 5
14 49 5
14 50 4
14 51 1
14 52 3
14 53 1
14 54 1
14 55 5
14 56 2
14 57 3
14 58 1
14 59 2
14 60 4
14 61 3
14 62 3
14 63 1
14 64 5
14 65 2
14 66 1
14 67 3
14 68 4
14 69 3
14 70 2
14 71 1
14 72 2
14 73 3
14 74 3
14 75 1
14 76 1
14 77 3
14 78 3
14 79 5
14 80 1
14 81 4
14 82 2
14 83 4
14 84 2
14 85 5
14 86 5
14 87 4
14 88 5
14 89 4
14 90 3
14 91 5
14 92 5
14 93 5
14 94 1
14 95 1
14 96 1
14 97 2
14 98 4
14 99 1
14 100 1
15 16 5
15 17 4
15 18 4
15 19 1
15 20 1
15 21 2
15 22 5
15 23 5
15 24 2
15 25 4
15 26 5
15 27 5
15 28 2
15 29 2
15 30 4
15 31 5
15 32 1
15 33 2
15 34 2
15 35 1
15 36 2
15 37 2
15 38 4
15 39 3
15 40 5
15 41 4
15 42 1
15 43 2
15 44 4
15 45 3
15 46 5
15 47 2
15 48 3
15 49 4
15 50 1
15 51 4
15 52 1
15 53 2
15 54 2
15 55 1
15 56 5
15 57 2
15 58 1
15 59 4
15 60 5
15 61 5
15 62 1
15 63 2
15 64 3
15 65 4
15 66 5
15 67 2
15 68 5
15 69 3
15 70 2
15 71 4
15 72 3
15 73 3
15 74 3
15 75 5
15 76 1
15 77 2
15 78 1
15 79 3
15 80 4
15 81 4
15 82 1
15 83 2
15 84 1
15 85 4
15 86 1
15 87 2
15 88 3
15 89 2
15 90 4
15 91 1
15 92 3
15 93 5
15 94 5
15 95 4
15 96 4
15 97 4
15 98 4
15 99 4
15 100 4
16 17 1
16 18 2
16 19 5
16 20 2
16 21 5
16 22 5
16 23 3
16 24 2
16 25 4
16 26 3
16 27 3
16 28 1
16 29 5
16 30 3
16 31 2
16 32 1
16 33 1
16 34 2
16 35 1
16 36 3
16 37 2
16 38 4
16 39 1
16 40 4
16 41 5
16 42 1
16 43 5
16 44 3
16 45 1
16 46 5
16 47 1
16 48 2
16 49 3
16 50 3
16 51 4
16 52 4
16 53 1
16 54 3
16 55 3
16 56 1
16 57 2
16 58 5
16 59 3
16 60 4
16 61 3
16 62 4
16 63 5
16 64 2
16 65 2
16 66 5
16 67 4
16 68 3
16 69 1
16 70 2
16 71 3
16 72 1
16 73 2
16 74 4
16 75 4
16 76 1
16 77 1
16 78 5
16 79 2
16 80 1
16 81 5
16 82 3
16 83 5
16 84 4
16 85 5
16 86 2
16 87 3
16 88 5
16 89 5
16 90 4
16 91 3
16 92 2
16 93 5
16 94 3
16 95 4
16 96 3
16 97 5
16 98 3
16 99 3
16 100 2
17 18 1
17 19 5
17 20 4
17 21 1
17 22 4
17 23 1
17 24 5
17 25 3
17 26 2
17 27 4
17 28 5
17 29 4
17 30 1
17 31 5
17 32 2
17 33 5
17 34 4
17 35 5
17 36 4
17 37 5
17 38 4
17 39 5
17 40 1
17 41 3
17 42 1
17 43 4
17 44 2
17 45 4
17 46 5
17 47 2
17 48 5
17 49 4
17 50 1
17 51 1
17 52 2
17 53 2
17 54 5
17 55 2
17 56 1
17 57 3
17 58 4
17 59 5
17 60 4
17 61 1
17 62 2
17 63 2
17 64 1
17 65 3
17 66 2
17 67 1
17 68 5
17 69 3
17 70 4
17 71 5
17 72 3
17 73 4
17 74 1
17 75 5
17 76 2
17 77 3
17 78 3
17 79 5
17 80 3
17 81 2
17 82 4
17 83 1
17 84 5
17 85 1
17 86 5
17 87 1
17 88 3
17 89 5
17 90 5
17 91 5
17 92 4
17 93 2
17 94 5
17 95 2
17 96 2
17 97 3
17 98 2
17 99 2
17 100 3
18 19 3
18 20 5
18 21 3
18 22 4
18 23 4
18 24 1
18 25 2
18 26 4
18 27 3
18 28 1
18 29 2
18 30 5
18 31 2
18 32 1
18 33 4
18 34 2
18 35 5
18 36 4
18 37 3
18 38 1
18 39 2
18 40 4
18 41 5
18 42 4
18 43 2
18 44 3
18 45 5
18 46 4
18 47 3
18 48 1
18 49 5
18 50 2
18 51 5
18 52 2
18 53 2
18 54 4
18 55 3
18 56 3
18 57 3
18 58 4
18 59 4
18 60 1
18 61 3
18 62 5
18 63 2
18 64 3
18 65 4
18 66 3
18 67 3
18 68 2
18 69 4
18 70 5
18 71 5
18 72 5
18 73 2
18 74 5
18 75 3
18 76 2
18 77 2
18 78 1
18 79 2
18 80 2
18 81 4
18 82 5
18 83 3
18 84 5
18 85 2
18 86 5
18 87 3
18 88 5
18 89 2
18 90 1
18 91 2
18 92 3
18 93 1
18 94 4
18 95 5
18 96 3
18 97 1
18 98 5
18 99 2
18 100 4
19 20 1
19 21 5
19 22 3
19 23 3
19 24 3
19 25 3
19 26 4
19 27 5
19 28 3
19 29 2
19 30 3
19 31 2
19 32 4
19 33 5
19 34 4
19 35 2
19 36 5
19 37 2
19 38 1
19 39 3
19 40 5
19 41 5
19 42 3
19 43 1
19 44 1
19 45 4
19 46 5
19 47 5
19 48 5
19 49 2
19 50 2
19 51 3
19 52 1
19 53 2
19 54 1
19 55 1
19 56 5
19 57 2
19 58 5
19 59 2
19 60 2
19 61 5
19 62 5
19 63 3
19 64 1
19 65 4
19 66 5
19 67 3
19 68 4
19 69 1
19 70 1
19 71 5
19 72 1
19 73 4
19 74 3
19 75 5
19 76 4
19 77 4
19 78 3
19 79 1
19 80 1
19 81 3
19 82 5
19 83 2
19 84 5
19 85 4
19 86 3
19 87 4
19 88 2
19 89 2
19 90 2
19 91 3
19 92 3
19 93 5
19 94 3
19 95 3
19 96 5
19 97 4
19 98 4
19 99 3
19 100 4
20 21 4
20 22 3
20 23 4
20 24 2
20 25 1
20 26 2
20 27 1
20 28 5
20 29 1
20 30 2
20 31 2
20 32 3
20 33 5
20 34 1
20 35 1
20 36 3
20 37 3
20 38 1
20 39 1
20 40 1
20 41 3
20 42 4
20 43 2
20 44 5
20 45 2
20 46 1
20 47 5
20 48 1
20 49 2
20 50 1
20 51 5
20 52 1
20 53 5
20 54 5
20 55 4
20 56 4
20 57 3
20 58 5
20 59 5
20 60 2
20 61 5
20 62 3
20 63 2
20 64 4
20 65 5
20 66 2
20 67 2
20 68 1
20 69 5
20 70 2
20 71 5
20 72 5
20 73 5
20 74 5
20 75 1
20 76 1
20 77 4
20 78 1
20 79 4
20 80 4
20 81 4
20 82 3
20 83 3
20 84 1
20 85 4
20 86 1
20 87 3
20 88 3
20 89 4
20 90 1
20 91 4
20 92 3
20 93 3
20 94 1
20 95 4
20 96 4
20 97 5
20 98 4
20 99 1
20 100 3
21 22 5
21 23 5
21 24 2
21 25 1
21 26 4
21 27 5
21 28 3
21 29 1
21 30 2
21 31 4
21 32 3
21 33 3
21 34 5
21 35 4
21 36 1
21 37 2
21 38 2
21 39 5
21 40 1
21 41 3
21 42 5
21 43 3
21 44 5
21 45 4
21 46 4
21 47 3
21 48 1
21 49 3
21 50 1
21 51 3
21 52 2
21 53 1
21 54 3
21 55 5
21 56 1
21 57 5
21 58 3
21 59 1
21 60 1
21 61 2
21 62 4
21 63 1
21 64 1
21 65 3
21 66 5
21 67 3
21 68 2
21 69 4
21 70 4
21 71 1
21 72 2
21 73 2
21 74 4
21 75 4
21 76 4
21 77 4
21 78 5
21 79 2
21 80 2
21 81 1
21 82 3
21 83 5
21 84 5
21 85 1
21 86 3
21 87 1
21 88 1
21 89 2
21 90 4
21 91 1
21 92 2
21 93 2
21 94 3
21 95 3
21 96 4
21 97 5
21 98 4
21 99 1
21 100 2
22 23 5
22 24 4
22 25 5
22 26 1
22 27 4
22 28 1
22 29 3
22 30 2
22 31 5
22 32 3
22 33 4
22 34 2
22 35 1
22 36 3
22 37 1
22 38 1
22 39 2
22 40 2
22 41 3
22 42 1
22 43 3
22 44 1
22 45 1
22 46 1
22 47 3
22 48 1
22 49 3
22 50 5
22 51 1
22 52 2
22 53 2
22 54 1
22 55 1
22 56 3
22 57 3
22 58 3
22 59 1
22 60 3
22 61 3
22 62 3
22 63 2
22 64 1
22 65 2
22 66 2
22 67 2
22 68 4
22 69 5
22 70 4
22 71 2
22 72 1
22 73 2
22 74 2
22 75 2
22 76 5
22 77 2
22 78 4
22 79 3
22 80 2
22 81 5
22 82 3
22 83 5
22 84 1
22 85 4
22 86 1
22 87 1
22 88 1
22 89 5
22 90 5
22 91 5
22 92 2
22 93 5
22 94 3
22 95 1
22 96 2
22 97 5
22 98 1
22 99 1
22 100 1
23 24 2
23 25 4
23 26 1
23 27 4
23 28 2
23 29 5
23 30 5
23 31 5
23 32 5
23 33 1
23 34 4
23 35 4
23 36 1
23 37 2
23 38 2
23 39 3
23 40 4
23 41 1
23 42 1
23 43 2
23 44 3
23 45 2
23 46 2
23 47 3
23 48 5
23 49 1
23 50 5
23 51 3
23 52 4
23 53 1
23 54 3
23 55 4
23 56 2
23 57 1
23 58 3
23 59 4
23 60 5
23 61 4
23 62 4
23 63 4
23 64 3
23 65 1
23 66 3
23 67 4
23 68 2
23 69 2
23 70 1
23 71 3
23 72 1
23 73 4
23 74 4
23 75 5
23 76 5
23 77 3
23 78 4
23 79 4
23 80 4
23 81 1
23 82 4
23 83 5
23 84 5
23 85 5
23 86 2
23 87 1
23 88 3
23 89 5
23 90 4
23 91 3
23 92 5
23 93 3
23 94 4
23 95 1
23 96 1
23 97 5
23 98 1
23 99 1
23 100 5
24 25 3
24 26 2
24 27 2
24 28 4
24 29 4
24 30 3
24 31 5
24 32 3
24 33 3
24 34 4
24 35 3
24 36 5
24 37 2
24 38 5
24 39 4
24 40 5
24 41 1
24 42 3
24 43 4
24 44 1
24 45 4
24 46 2
24 47 1
24 48 2
24 49 3
24 50 5
24 51 3
24 52 5
24 53 4
24 54 3
24 55 3
24 56 5
24 57 3
24 58 3
24 59 3
24 60 2
24 61 1
24 62 3
24 63 3
24 64 5
24 65 2
24 66 4
24 67 5
24 68 5
24 69 5
24 70 5
24 71 5
24 72 1
24 73 4
24 74 1
24 75 2
24 76 5
24 77 2
24 78 3
24 79 4
24 80 2
24 81 4
24 82 2
24 83 2
24 84 2
24 85 5
24 86 5
24 87 4
24 88 1
24 89 5
24 90 4
24 91 1
24 92 5
24 93 4
24 94 3
24 95 1
24 96 4
24 97 5
24 98 4
24 99 5
24 100 1
25 26 1
25 27 1
25 28 2
25 29 1
25 30 1
25 31 4
25 32 4
25 33 5
25 34 2
25 35 4
25 36 3
25 37 3
25 38 1
25 39 5
25 40 3
25 41 1
25 42 2
25 43 4
25 44 3
25 45 2
25 46 4
25 47 3
25 48 3
25 49 1
25 50 1
25 51 5
25 52 3
25 53 1
25 54 1
25 55 2
25 56 3
25 57 4
25 58 1
25 59 1
25 60 5
25 61 5
25 62 2
25 63 3
25 64 5
25 65 4
25 66 5
25 67 2
25 68 4
25 69 1
25 70 4
25 71 1
25 72 4
25 73 3
25 74 5
25 75 3
25 76 1
25 77 1
25 78 1
25 79 3
25 80 1
25 81 1
25 82 1
25 83 2
25 84 2
25 85 1
25 86 5
25 87 4
25 88 3
25 89 4
25 90 4
25 91 2
25 92 3
25 93 3
25 94 1
25 95 3
25 96 5
25 97 3
25 98 4
25 99 2
25 100 4
26 27 2
26 28 4
26 29 1
26 30 4
26 31 2
26 32 5
26 33 3
26 34 4
26 35 3
26 36 2
26 37 2
26 38 5
26 39 1
26 40 3
26 41 2
26 42 4
26 43 5
26 44 3
26 45 4
26 46 5
26 47 1
26 48 5
26 49 1
26 50 5
26 51 2
26 52 2
26 53 4
26 54 3
26 55 2
26 56 4
26 57 5
26 58 5
26 59 2
26 60 4
26 61 3
26 62 1
26 63 4
26 64 3
26 65 3
26 66 2
26 67 5
26 68 3
26 69 1
26 70 3
26 71 4
26 72 5
26 73 3
26 74 1
26 75 2
26 76 4
26 77 4
26 78 3
26 79 3
26 80 4
26 81 5
26 82 4
26 83 5
26 84 5
26 85 3
26 86 5
26 87 1
26 88 3
26 89 1
26 90 1
26 91 1
26 92 4
26 93 2
26 94 3
26 95 4
26 96 5
26 97 4
26 98 4
26 99 1
26 100 2
27 28 5
27 29 1
27 30 2
27 31 3
27 32 3
27 33 1
27 34 3
27 35 1
27 36 3
27 37 5
27 38 4
27 39 1
27 40 3
27 41 5
27 42 5
27 43 1
27 44 3
27 45 2
27 46 4
27 47 3
27 48 2
27 49 3
27 50 5
27 51 3
27 52 2
27 53 5
27 54 1
27 55 4
27 56 4
27 57 5
27 58 3
27 59 4
27 60 2
27 61 5
27 62 2
27 63 5
27 64 3
27 65 1
27 66 2
27 67 4
27 68 1
27 69 1
27 70 3
27 71 4
27 72 4
27 73 1
27 74 5
27 75 2
27 76 4
27 77 3
27 78 5
27 79 4
27 80 1
27 81 1
27 82 3
27 83 5
27 84 1
27 85 1
27 86 3
27 87 1
27 88 2
27 89 1
27 90 3
27 91 3
27 92 4
27 93 4
27 94 2
27 95 3
27 96 1
27 97 5
27 98 4
27 99 3
27 100 3
28 29 3
28 30 3
28 31 2
28 32 3
28 33 3
28 34 1
28 35 3
28 36 1
28 37 4
28 38 1
28 39 1
28 40 4
28 41 4
28 42 5
28 43 4
28 44 1
28 45 4
28 46 3
28 47 3
28 48 1
28 49 5
28 50 3
28 51 4
28 52 5
28 53 5
28 54 4
28 55 4
28 56 3
28 57 3
28 58 1
28 59 1
28 60 3
28 61 2
28 62 3
28 63 2
28 64 2
28 65 2
28 66 4
28 67 2
28 68 1
28 69 4
28 70 3
28 71 2
28 72 5
28 73 5
28 74 5
28 75 1
28 76 3
28 77 2
28 78 2
28 79 2
28 80 1
28 81 1
28 82 3
28 83 3
28 84 1
28 85 5
28 86 4
28 87 2
28 88 2
28 89 2
28 90 5
28 91 1
28 92 5
28 93 5
28 94 3
28 95 5
28 96 3
28 97 5
28 98 5
28 99 2
28 100 2
29 30 1
29 31 4
29 32 1
29 33 5
29 34 1
29 35 1
29 36 3
29 37 3
29 38 3
29 39 1
29 40 3
29 41 4
29 42 4
29 43 3
29 44 2
29 45 4
29 46 1
29 47 1
29 48 1
29 49 3
29 50 5
29 51 5
29 52 3
29 53 3
29 54 5
29 55 4
29 56 5
29 57 2
29 58 4
29 59 5
29 60 3
29 61 5
29 62 1
29 63 3
29 64 2
29 65 1
29 66 5
29 67 1
29 68 3
29 69 2
29 70 5
29 71 1
29 72 3
29 73 4
29 74 1
29 75 4
29 76 3
29 77 5
29 78 4
29 79 5
29 80 5
29 81 2
29 82 1
29 83 3
29 84 4
29 85 5
29 86 1
29 87 5
29 88 2
29 89 1
29 90 1
29 91 5
29 92 3
29 93 5
29 94 5
29 95 5
29 96 1
29 97 3
29 98 5
29 99 3
29 100 5
30 31 3
30 32 1
30 33 1
30 34 2
30 35 5
30 36 5
30 37 2
30 38 4
30 39 2
30 40 2
30 41 2
30 42 5
30 43 2
30 44 5
30 45 3
30 46 1
30 47 2
30 48 4
30 49 4
30 50 3
30 51 2
30 52 3
30 53 4
30 54 3
30 55 5
30 56 3
30 57 3
30 58 3
30 59 1
30 60 2
30 61 1
30 62 1
30 63 3
30 64 1
30 65 2
30 66 3
30 67 1
30 68 5
30 69 5
30 70 1
30 71 3
30 72 2
30 73 5
30 74 5
30 75 5
30 76 2
30 77 4
30 78 4
30 79 1
30 80 3
30 81 3
30 82 2
30 83 1
30 84 2
30 85 2
30 86 2
30 87 3
30 88 4
30 89 5
30 90 3
30 91 2
30 92 3
30 93 1
30 94 2
30 95 4
30 96 1
30 97 3
30 98 3
30 99 2
30 100 2
31 32 2
31 33 2
31 34 5
31 35 3
31 36 1
31 37 3
31 38 5
31 39 3
31 40 5
31 41 4
31 42 5
31 43 2
31 44 5
31 45 2
31 46 5
31 47 1
31 48 4
31 49 1
31 50 5
31 51 5
31 52 1
31 53 1
31 54 5
31 55 1
31 56 1
31 57 3
31 58 4
31 59 1
31 60 4
31 61 1
31 62 5
31 63 2
31 64 3
31 65 3
31 66 1
31 67 1
31 68 1
31 69 3
31 70 5
31 71 2
31 72 5
31 73 5
31 74 5
31 75 5
31 76 2
31 77 3
31 78 5
31 79 2
31 80 5
31 81 2
31 82 5
31 83 3
31 84 4
31 85 5
31 86 4
31 87 3
31 88 3
31 89 3
31 90 5
31 91 5
31 92 3
31 93 5
31 94 3
31 95 2
31 96 2
31 97 2
31 98 5
31 99 2
31 100 3
32 33 4
32 34 3
32 35 1
32 36 1
32 37 5
32 38 5
32 39 1
32 40 5
32 41 5
32 42 1
32 43 5
32 44 4
32 45 3
32 46 4
32 47 3
32 48 5
32 49 5
32 50 3
32 51 5
32 52 4
32 53 5
32 54 2
32 55 2
32 56 3
32 57 4
32 58 4
32 59 1
32 60 2
32 61 2
32 62 4
32 63 2
32 64 4
32 65 4
32 66 4
32 67 1
32 68 1
32 69 1
32 70 2
32 71 5
32 72 3
32 73 2
32 74 1
32 75 2
32 76 2
32 77 5
32 78 3
32 79 2
32 80 2
32 81 5
32 82 4
32 83 4
32 84 2
32 85 5
32 86 5
32 87 3
32 88 3
32 89 2
32 90 2
32 91 3
32 92 4
32 93 3
32 94 5
32 95 1
32 96 2
32 97 4
32 98 1
32 99 3
32 100 4
33 34 1
33 35 3
33 36 2
33 37 2
33 38 1
33 39 3
33 40 3
33 41 4
33 42 1
33 43 3
33 44 3
33 45 4
33 46 5
33 47 1
33 48 3
33 49 4
33 50 2
33 51 1
33 52 4
33 53 4
33 54 4
33 55 3
33 56 5
33 57 2
33 58 3
33 59 3
33 60 5
33 61 3
33 62 4
33 63 5
33 64 2
33 65 5
33 66 3
33 67 4
33 68 3
33 69 3
33 70 5
33 71 2
33 72 5
33 73 2
33 74 1
33 75 3
33 76 1
33 77 3
33 78 5
33 79 2
33 80 5
33 81 5
33 82 1
33 83 2
33 84 3
33 85 3
33 86 2
33 87 1
33 88 3
33 89 5
33 90 1
33 91 2
33 92 1
33 93 3
33 94 1
33 95 1
33 96 4
33 97 4
33 98 5
33 99 4
33 100 4
34 35 2
34 36 2
34 37 5
34 38 5
34 39 1
34 40 4
34 41 1
34 42 3
34 43 1
34 44 1
34 45 3
34 46 5
34 47 2
34 48 3
34 49 1
34 50 1
34 51 5
34 52 3
34 53 3
34 54 2
34 55 4
34 56 5
34 57 4
34 58 4
34 59 3
34 60 2
34 61 3
34 62 1
34 63 2
34 64 5
34 65 2
34 66 4
34 67 3
34 68 1
34 69 5
34 70 4
34 71 2
34 72 5
34 73 3
34 74 1
34 75 2
34 76 5
34 77 5
34 78 2
34 79 4
34 80 5
34 81 2
34 82 3
34 83 4
34 84 4
34 85 5
34 86 4
34 87 4
34 88 4
34 89 3
34 90 4
34 91 3
34 92 3
34 93 2
34 94 4
34 95 5
34 96 3
34 97 1
34 98 3
34 99 1
34 100 3
35 36 2
35 37 3
35 38 3
35 39 2
35 40 3
35 41 4
35 42 2
35 43 4
35 44 2
35 45 5
35 46 4
35 47 3
35 48 4
35 49 3
35 50 5
35 51 2
35 52 1
35 53 2
35 54 4
35 55 5
35 56 4
35 57 1
35 58 4
35 59 5
35 60 1
35 61 2
35 62 3
35 63 4
35 64 5
35 65 5
35 66 4
35 67 1
35 68 3
35 69 2
35 70 3
35 71 4
35 72 1
35 73 4
35 74 3
35 75 5
35 76 1
35 77 3
35 78 5
35 79 3
35 80 2
35 81 4
35 82 3
35 83 1
35 84 1
35 85 1
35 86 2
35 87 3
35 88 1
35 89 4
35 90 5
35 91 1
35 92 3
35 93 5
35 94 5
35 95 5
35 96 5
35 97 4
35 98 1
35 99 3
35 100 1
36 37 1
36 38 1
36 39 5
36 40 3
36 41 2
36 42 1
36 43 3
36 44 1
36 45 5
36 46 1
36 47 5
36 48 5
36 49 2
36 50 5
36 51 2
36 52 5
36 53 2
36 54 1
36 55 4
36 56 3
36 57 2
36 58 1
36 59 3
36 60 2
36 61 4
36 62 1
36 63 4
36 64 5
36 65 2
36 66 2
36 67 4
36 68 5
36 69 4
36 70 4
36 71 1
36 72 1
36 73 1
36 74 4
36 75 5
36 76 2
36 77 3
36 78 3
36 79 5
36 80 5
36 81 4
36 82 1
36 83 1
36 84 5
36 85 4
36 86 5
36 87 1
36 88 4
36 89 2
36 90 5
36 91 3
36 92 2
36 93 5
36 94 2
36 95 2
36 96 1
36 97 2
36 98 2
36 99 4
36 100 4
37 38 3
37 39 5
37 40 4
37 41 4
37 42 3
37 43 2
37 44 1
37 45 3
37 46 3
37 47 1
37 48 4
37 49 1
37 50 4
37 51 5
37 52 2
37 53 5
37 54 3
37 55 5
37 56 5
37 57 4
37 58 1
37 59 3
37 60 3
37 61 5
37 62 5
37 63 2
37 64 2
37 65 3
37 66 2
37 67 2
37 68 3
37 69 3
37 70 3
37 71 3
37 72 2
37 73 3
37 74 2
37 75 4
37 76 4
37 77 1
37 78 3
37 79 5
37 80 4
37 81 5
37 82 5
37 83 3
37 84 5
37 85 3
37 86 2
37 87 4
37 88 5
37 89 2
37 90 3
37 91 2
37 92 1
37 93 3
37 94 2
37 95 5
37 96 2
37 97 5
37 98 1
37 99 4
37 100 3
38 39 1
38 40 5
38 41 2
38 42 3
38 43 2
38 44 1
38 45 2
38 46 1
38 47 5
38 48 2
38 49 3
38 50 4
38 51 5
38 52 4
38 53 5
38 54 4
38 55 5
38 56 5
38 57 2
38 58 2
38 59 4
38 60 2
38 61 1
38 62 4
38 63 3
38 64 3
38 65 3
38 66 2
38 67 1
38 68 1
38 69 3
38 70 1
38 71 2
38 72 4
38 73 2
38 74 5
38 75 2
38 76 5
38 77 3
38 78 1
38 79 5
38 80 1
38 81 2
38 82 5
38 83 5
38 84 2
38 85 3
38 86 3
38 87 5
38 88 1
38 89 5
38 90 5
38 91 5
38 92 2
38 93 1
38 94 4
38 95 3
38 96 4
38 97 1
38 98 3
38 99 5
38 100 2
39 40 3
39 41 1
39 42 1
39 43 1
39 44 5
39 45 4
39 46 4
39 47 2
39 48 5
39 49 2
39 50 2
39 51 1
39 52 4
39 53 3
39 54 3
39 55 5
39 56 3
39 57 3
39 58 1
39 59 5
39 60 5
39 61 3
39 62 2
39 63 5
39 64 4
39 65 1
39 66 3
39 67 5
39 68 1
39 69 2
39 70 2
39 71 2
39 72 1
39 73 5
39 74 4
39 75 5
39 76 5
39 77 4
39 78 5
39 79 2
39 80 2
39 81 4
39 82 4
39 83 4
39 84 2
39 85 4
39 86 5
39 87 1
39 88 5
39 89 5
39 90 2
39 91 2
39 92 1
39 93 5
39 94 2
39 95 2
39 96 1
39 97 3
39 98 1
39 99 5
39 100 2
40 41 2
40 42 3
40 43 5
40 44 3
40 45 3
40 46 2
40 47 3
40 48 5
40 49 5
40 50 1
40 51 2
40 52 4
40 53 1
40 54 2
40 55 1
40 56 5
40 57 1
40 58 1
40 59 5
40 60 3
40 61 4
40 62 4
40 63 5
40 64 4
40 65 2
40 66 5
40 67 4
40 68 4
40 69 4
40 70 5
40 71 3
40 72 5
40 73 2
40 74 1
40 75 1
40 76 2
40 77 2
40 78 3
40 79 2
40 80 5
40 81 4
40 82 1
40 83 5
40 84 1
40 85 5
40 86 4
40 87 3
40 88 2
40 89 4
40 90 1
40 91 5
40 92 1
40 93 5
40 94 4
40 95 3
40 96 5
40 97 5
40 98 5
40 99 2
40 100 5
41 42 2
41 43 2
41 44 1
41 45 2
41 46 3
41 47 2
41 48 3
41 49 2
41 50 1
41 51 3
41 52 3
41 53 1
41 54 1
41 55 2
41 56 4
41 57 5
41 58 4
41 59 5
41 60 1
41 61 4
41 62 2
41 63 3
41 64 4
41 65 3
41 66 4
41 67 1
41 68 5
41 69 2
41 70 3
41 71 1
41 72 2
41 73 3
41 74 5
41 75 1
41 76 1
41 77 3
41 78 1
41 79 5
41 80 3
41 81 3
41 82 1
41 83 1
41 84 5
41 85 2
41 86 1
41 87 3
41 88 5
41 89 4
41 90 3
41 91 2
41 92 2
41 93 1
41 94 5
41 95 4
41 96 5
41 97 2
41 98 5
41 99 1
41 100 2
42 43 3
42 44 4
42 45 5
42 46 2
42 47 5
42 48 5
42 49 3
42 50 2
42 51 4
42 52 4
42 53 5
42 54 3
42 55 3
42 56 4
42 57 4
42 58 2
42 59 1
42 60 1
42 61 3
42 62 3
42 63 4
42 64 3
42 65 3
42 66 4
42 67 1
42 68 1
42 69 3
42 70 3
42 71 3
42 72 4
42 73 1
42 74 5
42 75 3
42 76 2
42 77 5
42 78 1
42 79 3
42 80 2
42 81 5
42 82 2
42 83 3
42 84 2
42 85 1
42 86 3
42 87 5
42 88 1
42 89 1
42 90 1
42 91 4
42 92 2
42 93 1
42 94 2
42 95 1
42 96 3
42 97 3
42 98 3
42 99 2
42 100 2
43 44 1
43 45 1
43 46 4
43 47 2
43 48 3
43 49 5
43 50 4
43 51 5
43 52 1
43 53 4
43 54 5
43 55 1
43 56 4
43 57 5
43 58 2
43 59 1
43 60 2
43 61 1
43 62 2
43 63 5
43 64 3
43 65 2
43 66 5
43 67 3
43 68 3
43 69 2
43 70 3
43 71 2
43 72 4
43 73 2
43 74 1
43 75 5
43 76 5
43 77 1
43 78 4
43 79 4
43 80 3
43 81 2
43 82 3
43 83 3
43 84 5
43 85 1
43 86 3
43 87 5
43 88 4
43 89 3
43 90 5
43 91 1
43 92 5
43 93 2
43 94 5
43 95 5
43 96 3
43 97 3
43 98 2
43 99 5
43 100 2
44 45 5
44 46 2
44 47 1
44 48 1
44 49 2
44 50 2
44 51 2
44 52 1
44 53 1
44 54 3
44 55 4
44 56 3
44 57 3
44 58 5
44 59 2
44 60 1
44 61 4
44 62 1
44 63 1
44 64 5
44 65 2
44 66 5
44 67 3
44 68 4
44 69 2
44 70 3
44 71 1
44 72 2
44 73 5
44 74 3
44 75 3
44 76 4
44 77 4
44 78 3
44 79 2
44 80 4
44 81 3
44 82 5
44 83 2
44 84 1
44 85 2
44 86 5
44 87 2
44 88 2
44 89 5
44 90 4
44 91 5
44 92 5
44 93 4
44 94 3
44 95 5
44 96 4
44 97 4
44 98 4
44 99 4
44 100 4
45 46 5
45 47 5
45 48 2
45 49 5
45 50 5
45 51 4
45 52 1
45 53 5
45 54 2
45 55 3
45 56 1
45 57 2
45 58 5
45 59 4
45 60 1
45 61 3
45 62 5
45 63 5
45 64 4
45 65 5
45 66 1
45 67 1
45 68 4
45 69 5
45 70 1
45 71 3
45 72 4
45 73 1
45 74 2
45 75 1
45 76 5
45 77 2
45 78 3
45 79 2
45 80 5
45 81 4
45 82 1
45 83 4
45 84 4
45 85 2
45 86 5
45 87 5
45 88 4
45 89 3
45 90 2
45 91 4
45 92 5
45 93 3
45 94 4
45 95 1
45 96 2
45 97 1
45 98 3
45 99 4
45 100 1
46 47 5
46 48 2
46 49 2
46 50 4
46 51 3
46 52 4
46 53 4
46 54 5
46 55 1
46 56 4
46 57 4
46 58 5
46 59 2
46 60 2
46 61 4
46 62 5
46 63 5
46 64 4
46 65 4
46 66 4
46 67 5
46 68 3
46 69 5
46 70 3
46 71 3
46 72 4
46 73 4
46 74 5
46 75 4
46 76 4
46 77 3
46 78 5
46 79 3
46 80 2
46 81 2
46 82 4
46 83 1
46 84 4
46 85 1
46 86 1
46 87 1
46 88 1
46 89 5
46 90 4
46 91 2
46 92 1
46 93 1
46 94 4
46 95 2
46 96 4
46 97 5
46 98 3
46 99 3
46 100 5
47 48 1
47 49 5
47 50 5
47 51 1
47 52 5
47 53 2
47 54 2
47 55 1
47 56 3
47 57 2
47 58 4
47 59 3
47 60 5
47 61 2
47 62 2
47 63 2
47 64 4
47 65 4
47 66 1
47 67 5
47 68 2
47 69 3
47 70 2
47 71 3
47 72 2
47 73 1
47 74 2
47 75 5
47 76 2
47 77 4
47 78 3
47 79 1
47 80 4
47 81 1
47 82 5
47 83 4
47 84 5
47 85 3
47 86 2
47 87 1
47 88 5
47 89 3
47 90 1
47 91 2
47 92 5
47 93 1
47 94 2
47 95 2
47 96 4
47 97 5
47 98 5
47 99 2
47 100 4
48 49 4
48 50 4
48 51 4
48 52 4
48 53 4
48 54 1
48 55 1
48 56 2
48 57 4
48 58 3
48 59 4
48 60 1
48 61 1
48 62 1
48 63 4
48 64 3
48 65 2
48 66 3
48 67 4
48 68 5
48 69 4
48 70 2
48 71 1
48 72 3
48 73 1
48 74 5
48 75 2
48 76 2
48 77 5
48 78 2
48 79 4
48 80 5
48 81 5
48 82 5
48 83 4
48 84 2
48 85 4
48 86 4
48 87 2
48 88 1
48 89 4
48 90 2
48 91 5
48 92 3
48 93 2
48 94 4
48 95 2
48 96 2
48 97 3
48 98 3
48 99 2
48 100 1
49 50 4
49 51 4
49 52 1
49 53 4
49 54 2
49 55 4
49 56 4
49 57 4
49 58 2
49 59 5
49 60 4
49 61 2
49 62 1
49 63 3
49 64 1
49 65 2
49 66 5
49 67 1
49 68 1
49 69 4
49 70 2
49 71 4
49 72 3
49 73 2
49 74 2
49 75 1
49 76 4
49 77 1
49 78 3
49 79 2
49 80 3
49 81 3
49 82 3
49 83 5
49 84 5
49 85 5
49 86 4
49 87 4
49 88 2
49 89 2
49 90 4
49 91 4
49 92 4
49 93 4
49 94 1
49 95 1
49 96 1
49 97 2
49 98 1
49 99 5
49 100 5
50 51 5
50 52 1
50 53 4
50 54 4
50 55 5
50 56 2
50 57 1
50 58 5
50 59 1
50 60 2
50 61 1
50 62 3
50 63 2
50 64 5
50 65 5
50 66 2
50 67 5
50 68 2
50 69 5
50 70 1
50 71 1
50 72 3
50 73 3
50 74 2
50 75 3
50 76 4
50 77 4
50 78 2
50 79 1
50 80 3
50 81 1
50 82 2
50 83 4
50 84 4
50 85 4
50 86 2
50 87 5
50 88 1
50 89 3
50 90 4
50 91 5
50 92 1
50 93 5
50 94 3
50 95 3
50 96 3
50 97 1
50 98 4
50 99 3
50 100 3
51 52 5
51 53 3
51 54 5
51 55 3
51 56 5
51 57 3
51 58 3
51 59 2
51 60 2
51 61 5
51 62 4
51 63 1
51 64 5
51 65 2
51 66 3
51 67 4
51 68 5
51 69 4
51 70 1
51 71 5
51 72 3
51 73 1
51 74 1
51 75 3
51 76 3
51 77 2
51 78 5
51 79 3
51 80 2
51 81 1
51 82 4
51 83 4
51 84 2
51 85 1
51 86 2
51 87 5
51 88 3
51 89 4
51 90 4
51 91 2
51 92 5
51 93 2
51 94 5
51 95 3
51 96 4
51 97 5
51 98 4
51 99 5
51 100 3
52 53 1
52 54 4
52 55 5
52 56 4
52 57 1
52 58 5
52 59 3
52 60 3
52 61 3
52 62 1
52 63 1
52 64 4
52 65 3
52 66 4
52 67 4
52 68 3
52 69 5
52 70 2
52 71 1
52 72 4
52 73 4
52 74 4
52 75 5
52 76 5
52 77 5
52 78 4
52 79 1
52 80 5
52 81 4
52 82 5
52 83 3
52 84 2
52 85 4
52 86 4
52 87 1
52 88 1
52 89 2
52 90 1
52 91 2
52 92 4
52 93 2
52 94 2
52 95 3
52 96 3
52 97 1
52 98 3
52 99 5
52 100 5
53 54 5
53 55 3
53 56 3
53 57 1
53 58 2
53 59 1
53 60 1
53 61 5
53 62 5
53 63 4
53 64 3
53 65 2
53 66 3
53 67 3
53 68 4
53 69 1
53 70 2
53 71 5
53 72 5
53 73 1
53 74 3
53 75 1
53 76 2
53 77 4
53 78 2
53 79 3
53 80 5
53 81 5
53 82 4
53 83 5
53 84 1
53 85 4
53 86 2
53 87 3
53 88 3
53 89 5
53 90 4
53 91 1
53 92 4
53 93 1
53 94 4
53 95 1
53 96 5
53 97 2
53 98 4
53 99 5
53 100 2
54 55 4
54 56 1
54 57 1
54 58 1
54 59 5
54 60 5
54 61 5
54 62 5
54 63 5
54 64 5
54 65 1
54 66 5
54 67 3
54 68 3
54 69 3
54 70 5
54 71 5
54 72 2
54 73 1
54 74 4
54 75 3
54 76 2
54 77 4
54 78 5
54 79 4
54 80 1
54 81 1
54 82 2
54 83 2
54 84 3
54 85 4
54 86 4
54 87 4
54 88 2
54 89 3
54 90 2
54 91 5
54 92 4
54 93 5
54 94 3
54 95 5
54 96 4
54 97 2
54 98 3
54 99 2
54 100 5
55 56 5
55 57 3
55 58 2
55 59 5
55 60 1
55 61 1
55 62 2
55 63 5
55 64 1
55 65 3
55 66 3
55 67 5
55 68 2
55 69 2
55 70 1
55 71 3
55 72 5
55 73 1
55 74 4
55 75 1
55 76 5
55 77 3
55 78 4
55 79 3
55 80 4
55 81 5
55 82 4
55 83 4
55 84 4
55 85 3
55 86 2
55 87 2
55 88 5
55 89 4
55 90 2
55 91 3
55 92 3
55 93 5
55 94 5
55 95 2
55 96 2
55 97 4
55 98 4
55 99 4
55 100 2
56 57 2
56 58 1
56 59 4
56 60 5
56 61 4
56 62 1
56 63 5
56 64 2
56 65 4
56 66 2
56 67 4
56 68 5
56 69 3
56 70 2
56 71 5
56 72 2
56 73 1
56 74 3
56 75 3
56 76 2
56 77 5
56 78 3
56 79 2
56 80 1
56 81 3
56 82 3
56 83 1
56 84 3
56 85 2
56 86 4
56 87 5
56 88 4
56 89 2
56 90 5
56 91 2
56 92 3
56 93 1
56 94 5
56 95 3
56 96 5
56 97 1
56 98 4
56 99 5
56 100 2
57 58 1
57 59 4
57 60 2
57 61 1
57 62 2
57 63 3
57 64 1
57 65 3
57 66 5
57 67 4
57 68 2
57 69 5
57 70 4
57 71 5
57 72 3
57 73 1
57 74 3
57 75 1
57 76 3
57 77 3
57 78 3
57 79 3
57 80 2
57 81 5
57 82 1
57 83 1
57 84 3
57 85 2
57 86 5
57 87 3
57 88 2
57 89 4
57 90 3
57 91 2
57 92 4
57 93 1
57 94 5
57 95 5
57 96 4
57 97 3
57 98 3
57 99 2
57 100 4
58 59 4
58 60 4
58 61 3
58 62 5
58 63 5
58 64 1
58 65 5
58 66 4
58 67 1
58 68 3
58 69 3
58 70 4
58 71 1
58 72 2
58 73 2
58 74 1
58 75 1
58 76 1
58 77 4
58 78 5
58 79 3
58 80 5
58 81 1
58 82 2
58 83 3
58 84 3
58 85 4
58 86 2
58 87 4
58 88 5
58 89 4
58 90 1
58 91 3
58 92 3
58 93 1
58 94 2
58 95 4
58 96 2
58 97 1
58 98 4
58 99 2
58 100 4
59 60 4
59 61 2
59 62 4
59 63 2
59 64 3
59 65 5
59 66 3
59 67 3
59 68 3
59 69 3
59 70 3
59 71 3
59 72 5
59 73 4
59 74 4
59 75 4
59 76 1
59 77 4
59 78 1
59 79 5
59 80 2
59 81 3
59 82 2
59 83 3
59 84 3
59 85 3
59 86 1
59 87 2
59 88 1
59 89 1
59 90 3
59 91 4
59 92 5
59 93 5
59 94 1
59 95 3
59 96 5
59 97 5
59 98 4
59 99 2
59 100 1
60 61 3
60 62 4
60 63 3
60 64 5
60 65 4
60 66 3
60 67 5
60 68 4
60 69 2
60 70 4
60 71 5
60 72 5
60 73 5
60 74 4
60 75 1
60 76 4
60 77 2
60 78 3
60 79 3
60 80 5
60 81 5
60 82 4
60 83 2
60 84 1
60 85 4
60 86 1
60 87 2
60 88 3
60 89 4
60 90 1
60 91 2
60 92 2
60 93 3
60 94 1
60 95 1
60 96 3
60 97 5
60 98 2
60 99 5
60 100 2
61 62 5
61 63 2
61 64 3
61 65 4
61 66 5
61 67 2
61 68 2
61 69 2
61 70 3
61 71 3
61 72 2
61 73 5
61 74 5
61 75 2
61 76 5
61 77 1
61 78 5
61 79 3
61 80 5
61 81 4
61 82 4
61 83 1
61 84 2
61 85 1
61 86 2
61 87 1
61 88 1
61 89 4
61 90 5
61 91 5
61 92 1
61 93 3
61 94 3
61 95 4
61 96 4
61 97 5
61 98 4
61 99 5
61 100 2
62 63 5
62 64 5
62 65 5
62 66 1
62 67 4
62 68 4
62 69 4
62 70 5
62 71 5
62 72 3
62 73 2
62 74 2
62 75 1
62 76 3
62 77 2
62 78 3
62 79 4
62 80 4
62 81 4
62 82 1
62 83 3
62 84 5
62 85 1
62 86 4
62 87 5
62 88 3
62 89 4
62 90 1
62 91 1
62 92 2
62 93 3
62 94 1
62 95 2
62 96 4
62 97 1
62 98 4
62 99 2
62 100 3
63 64 2
63 65 2
63 66 3
63 67 3
63 68 2
63 69 4
63 70 1
63 71 3
63 72 3
63 73 4
63 74 2
63 75 2
63 76 3
63 77 3
63 78 1
63 79 4
63 80 2
63 81 5
63 82 3
63 83 2
63 84 1
63 85 2
63 86 4
63 87 5
63 88 1
63 89 2
63 90 4
63 91 2
63 92 2
63 93 5
63 94 4
63 95 4
63 96 3
63 97 5
63 98 3
63 99 4
63 100 2
64 65 3
64 66 4
64 67 5
64 68 4
64 69 5
64 70 3
64 71 4
64 72 3
64 73 2
64 74 4
64 75 3
64 76 3
64 77 1
64 78 1
64 79 1
64 80 3
64 81 5
64 82 3
64 83 2
64 84 5
64 85 5
64 86 5
64 87 1
64 88 5
64 89 5
64 90 5
64 91 4
64 92 3
64 93 3
64 94 2
64 95 2
64 96 4
64 97 1
64 98 1
64 99 5
64 100 4
65 66 3
65 67 2
65 68 1
65 69 3
65 70 2
65 71 1
65 72 5
65 73 5
65 74 1
65 75 5
65 76 5
65 77 3
65 78 5
65 79 2
65 80 4
65 81 2
65 82 4
65 83 4
65 84 2
65 85 4
65 86 1
65 87 3
65 88 1
65 89 4
65 90 1
65 91 4
65 92 1
65 93 4
65 94 4
65 95 3
65 96 1
65 97 2
65 98 4
65 99 3
65 100 4
66 67 4
66 68 1
66 69 3
66 70 5
66 71 3
66 72 5
66 73 5
66 74 2
66 75 1
66 76 1
66 77 3
66 78 5
66 79 1
66 80 3
66 81 3
66 82 4
66 83 4
66 84 4
66 85 3
66 86 4
66 87 3
66 88 2
66 89 5
66 90 5
66 91 1
66 92 5
66 93 3
66 94 4
66 95 4
66 96 2
66 97 3
66 98 1
66 99 1
66 100 2
67 68 2
67 69 3
67 70 2
67 71 2
67 72 3
67 73 2
67 74 3
67 75 3
67 76 5
67 77 5
67 78 2
67 79 3
67 80 5
67 81 5
67 82 4
67 83 5
67 84 3
67 85 2
67 86 5
67 87 4
67 88 1
67 89 1
67 90 3
67 91 5
67 92 1
67 93 2
67 94 2
67 95 4
67 96 2
67 97 1
67 98 5
67 99 2
67 100 4
68 69 3
68 70 1
68 71 4
68 72 5
68 73 1
68 74 2
68 75 2
68 76 5
68 77 5
68 78 5
68 79 1
68 80 5
68 81 3
68 82 1
68 83 1
68 84 2
68 85 3
68 86 5
68 87 5
68 88 2
68 89 3
68 90 5
68 91 5
68 92 1
68 93 3
68 94 1
68 95 2
68 96 1
68 97 4
68 98 1
68 99 3
68 100 1
69 70 1
69 71 4
69 72 5
69 73 3
69 74 5
69 75 5
69 76 2
69 77 2
69 78 3
69 79 2
69 80 4
69 81 1
69 82 4
69 83 3
69 84 1
69 85 4
69 86 4
69 87 2
69 88 1
69 89 5
69 90 2
69 91 1
69 92 5
69 93 2
69 94 5
69 95 5
69 96 5
69 97 2
69 98 1
69 99 3
69 100 1
70 71 4
70 72 1
70 73 2
70 74 5
70 75 3
70 76 4
70 77 1
70 78 1
70 79 5
70 80 2
70 81 5
70 82 4
70 83 3
70 84 1
70 85 2
70 86 3
70 87 1
70 88 4
70 89 4
70 90 5
70 91 1
70 92 1
70 93 2
70 94 5
70 95 2
70 96 3
70 97 5
70 98 4
70 99 3
70 100 1
71 72 1
71 73 3
71 74 2
71 75 4
71 76 4
71 77 4
71 78 3
71 79 5
71 80 2
71 81 3
71 82 3
71 83 3
71 84 4
71 85 4
71 86 1
71 87 5
71 88 4
71 89 5
71 90 2
71 91 1
71 92 1
71 93 5
71 94 2
71 95 5
71 96 3
71 97 3
71 98 2
71 99 4
71 100 3
72 73 2
72 74 4
72 75 1
72 76 1
72 77 5
72 78 3
72 79 1
72 80 2
72 81 4
72 82 3
72 83 5
72 84 2
72 85 1
72 86 3
72 87 4
72 88 1
72 89 5
72 90 1
72 91 5
72 92 4
72 93 1
72 94 3
72 95 3
72 96 1
72 97 3
72 98 4
72 99 3
72 100 2
73 74 1
73 75 1
73 76 3
73 77 3
73 78 2
73 79 3
73 80 5
73 81 1
73 82 3
73 83 4
73 84 5
73 85 4
73 86 4
73 87 2
73 88 2
73 89 3
73 90 4
73 91 4
73 92 2
73 93 1
73 94 3
73 95 1
73 96 5
73 97 2
73 98 2
73 99 4
73 100 4
74 75 3
74 76 1
74 77 3
74 78 3
74 79 2
74 80 3
74 81 4
74 82 3
74 83 1
74 84 4
74 85 2
74 86 1
74 87 4
74 88 4
74 89 4
74 90 3
74 91 5
74 92 1
74 93 5
74 94 2
74 95 2
74 96 4
74 97 3
74 98 3
74 99 2
74 100 5
75 76 1
75 77 4
75 78 1
75 79 2
75 80 3
75 81 5
75 82 1
75 83 4
75 84 3
75 85 5
75 86 3
75 87 3
75 88 1
75 89 2
75 90 4
75 91 2
75 92 5
75 93 1
75 94 1
75 95 5
75 96 2
75 97 2
75 98 1
75 99 4
75 100 1
76 77 4
76 78 1
76 79 5
76 80 2
76 81 5
76 82 1
76 83 2
76 84 5
76 85 3
76 86 2
76 87 5
76 88 5
76 89 3
76 90 3
76 91 5
76 92 3
76 93 5
76 94 1
76 95 2
76 96 4
76 97 2
76 98 3
76 99 4
76 100 3
77 78 5
77 79 4
77 80 1
77 81 4
77 82 4
77 83 3
77 84 2
77 85 5
77 86 5
77 87 2
77 88 3
77 89 1
77 90 5
77 91 2
77 92 4
77 93 3
77 94 3
77 95 4
77 96 2
77 97 4
77 98 1
77 99 2
77 100 5
78 79 2
78 80 4
78 81 3
78 82 3
78 83 4
78 84 3
78 85 4
78 86 3
78 87 3
78 88 4
78 89 3
78 90 4
78 91 3
78 92 4
78 93 4
78 94 1
78 95 4
78 96 5
78 97 2
78 98 2
78 99 4
78 100 3
79 80 1
79 81 2
79 82 1
79 83 2
79 84 1
79 85 4
79 86 2
79 87 5
79 88 3
79 89 3
79 90 4
79 91 3
79 92 4
79 93 3
79 94 4
79 95 2
79 96 2
79 97 3
79 98 4
79 99 4
79 100 4
80 81 5
80 82 5
80 83 5
80 84 5
80 85 1
80 86 5
80 87 4
80 88 2
80 89 4
80 90 2
80 91 5
80 92 1
80 93 1
80 94 5
80 95 3
80 96 1
80 97 3
80 98 3
80 99 4
80 100 4
81 82 5
81 83 4
81 84 3
81 85 2
81 86 5
81 87 4
81 88 5
81 89 5
81 90 3
81 91 2
81 92 2
81 93 4
81 94 3
81 95 4
81 96 3
81 97 3
81 98 2
81 99 3
81 100 5
82 83 3
82 84 5
82 85 2
82 86 2
82 87 2
82 88 2
82 89 4
82 90 1
82 91 5
82 92 2
82 93 2
82 94 4
82 95 5
82 96 2
82 97 4
82 98 1
82 99 1
82 100 5
83 84 2
83 85 1
83 86 5
83 87 2
83 88 1
83 89 1
83 90 5
83 91 3
83 92 1
83 93 1
83 94 2
83 95 2
83 96 1
83 97 3
83 98 5
83 99 5
83 100 1
84 85 3
84 86 3
84 87 3
84 88 4
84 89 5
84 90 3
84 91 2
84 92 5
84 93 2
84 94 4
84 95 5
84 96 4
84 97 1
84 98 5
84 99 1
84 100 5
85 86 4
85 87 5
85 88 5
85 89 3
85 90 5
85 91 1
85 92 4
85 93 5
85 94 3
85 95 4
85 96 5
85 97 5
85 98 1
85 99 2
85 100 2
86 87 5
86 88 2
86 89 1
86 90 5
86 91 3
86 92 4
86 93 5
86 94 3
86 95 5
86 96 3
86 97 1
86 98 4
86 99 4
86 100 5
87 88 2
87 89 1
87 90 1
87 91 3
87 92 5
87 93 4
87 94 3
87 95 5
87 96 2
87 97 3
87 98 4
87 99 3
87 100 4
88 89 3
88 90 4
88 91 2
88 92 4
88 93 1
88 94 2
88 95 1
88 96 3
88 97 1
88 98 5
88 99 4
88 100 3
89 90 3
89 91 3
89 92 2
89 93 2
89 94 2
89 95 5
89 96 3
89 97 3
89 98 4
89 99 5
89 100 2
90 91 4
90 92 5
90 93 1
90 94 2
90 95 3
90 96 2
90 97 1
90 98 2
90 99 5
90 100 3
91 92 3
91 93 5
91 94 5
91 95 3
91 96 1
91 97 3
91 98 5
91 99 4
91 100 3
92 93 1
92 94 5
92 95 4
92 96 2
92 97 3
92 98 2
92 99 4
92 100 5
93 94 4
93 95 3
93 96 3
93 97 5
93 98 5
93 99 4
93 100 3
94 95 5
94 96 2
94 97 2
94 98 5
94 99 1
94 100 1
95 96 5
95 97 5
95 98 5
95 99 4
95 100 2
96 97 3
96 98 5
96 99 5
96 100 3
97 98 4
97 99 5
97 100 4
98 99 5
98 100 5
99 100 4
